32      4       
17      20      20      13      
0       0       0       0       0       8       2       25      26      27      28      29      30      31      
3       1       1       3       2       1       3       
10      8       11      6       6       2       24      4       
4       1       1       2       8       3       23      22      5       
9       9       1       1       5       1       6       
2       4       1       11      1       2       21      7       
7       5       2       7       6       3       20      19      8       
6       1       10      5       3       2       18      9       
3       3       2       1       3       2       17      10      
6       2       1       1       1       1       11      
2       1       6       18      1       1       12      
1       1       6       14      1       1       13      
1       1       6       1       5       1       14      
6       12      1       5       1       1       15      
1       9       6       9       1       1       16      
10      4       5       1       4       1       32      
10      5       5       7       5       1       32      
7       1       7       1       2       1       32      
8       1       13      3       8       1       32      
7       1       7       5       1       1       32      
8       1       4       7       1       1       32      
9       10      4       7       1       1       32      
4       1       5       2       1       1       32      
10      2       6       6       1       1       32      
4       6       1       3       8       1       32      
9       6       1       5       5       1       32      
3       8       1       1       5       1       32      
8       6       1       6       1       1       32      
5       11      16      1       1       1       32      
2       1       8       1       7       1       32      
6       6       11      10      3       1       32      
0       0       0       0       0       0       
